c Example problem given in the 2D project handout
c Handcrafted Problem: (x1 ∨ x2) ∧ (x2 ∨ x3) ∧ (x3 ∨ x4) ∧ (¬x1 ∨ ¬x3) ∧ (¬x2 ∨ ¬x4)
c Resolution: SATISFIABLE
c Solution: 0 1 1 0
p cnf 4 5
1 2 0
2 3 0
3 4 0
-1 -3 0
-2 -4 0